100
43 4
30 0
5 1
0 4
14 0
30 4
15 3
11 4
14 2
12 1
8 3
24 3
22 0
4 3
31 4
17 0
40 4
8 4
4 4
28 3
40 0
12 0
15 4
38 4
21 0
28 4
28 2
22 3
16 0
27 2
13 0
39 0
21 4
34 2
20 2
2 4
26 0
19 3
27 0
39 4
24 2
15 1
30 1
17 4
24 0
35 1
37 4
36 4
26 4
41 1
23 0
5 0
18 3
5 4
25 4
32 3
17 3
36 0
1 2
37 0
38 3
27 4
13 4
36 3
34 0
6 0
23 4
29 0
37 3
12 2
41 4
44 4
19 0
18 0
44 0
25 0
42 4
0 0
28 0
35 3
22 1
43 1
7 0
25 1
32 2
41 0
41 2
6 4
4 2
5 3
18 4
31 0
32 4
1 0
9 3
12 3
36 1
9 0
29 3
2 1

